NAME : XML100_3255_05
DIMENSION : 101
NB_CLUSTERS : 14
CLUSTERING_ALG : DBSCAN
CLUSTERING_PARAMS : eps(63), minSamples(3)
CLUSTERS
1 0
2 1 3 21 26 34 37 38 43 44 46 51 66 69 81 83 92
3 2 6 8 9 11 16 17 20 27 29 53 61 63 77 78 79 84 85 88 94 95 99
4 4 12 13 30 39 56 62 72 75 86 91 96 97
5 5 14 25 60
6 15 19 22 24 28 31 33 41 45 48 50 55 59 71 74 76 80 82 89 90 98
7 36 42 54 64 68
8 7 40 47 67 70 100
9 58 73
10 32 49
11 18 35
12 10 93
13 52 65
14 23 57 87
EOF